1883381008899701549503,3,1,2,06,9,1,2,01,9,1,2,013,1,1,2,05,7,1,2,08,6,1,2,06,9,1,2,013,7,1,2,012,2,1,2,01,2,1,2,04,12,1,2,010,2,1,2,09,7,1,2,07,11,1,2,012,8,1,2,04,8,1,2,02,8,1,2,06,7,1,2,012,10,1,2,01,4,1,2,02,2,1,2,014,1,1,2,013,14,1,2,01,10,1,2,013,12,1,2,012,8,1,2,014,12,1,2,02,2,1,2,08,1,1,2,09,10,1,2,04,5,1,2,03,14,1,2,01,11,1,2,08,7,1,2,010,4,1,2,02,12,1,2,07,14,1,2,08,3,1,2,08,10,1,2,05,5,1,2,012,6,1,2,07,4,1,2,02,10,1,2,01,5,1,2,01,13,1,2,08,3,1,2,012,7,1,2,03,15,1,2,011,9,1,2,04,15,1,2,0